c File: flat50_3_0.col
c
c SOURCE: Joseph Culberson (joe@cs.ualberta.ca)
c DESCRIPTION: Quasi-random coloring problem
c              generated with flatness = 0
c                             probability = 0.139
c                             known coloring = 3
c                             random seed = 1723
c              Creation Date:  Tue Jun  9 12:16:17 1998
c Maximum degree = 8 Minimum degree = 2
c p edge 50 115
c cnf created by edge2cnf
p cnf 150 545
-1 -2 0
-1 -3 0
-2 -3 0
1 2 3 0
-4 -5 0
-4 -6 0
-5 -6 0
4 5 6 0
-7 -8 0
-7 -9 0
-8 -9 0
7 8 9 0
-10 -11 0
-10 -12 0
-11 -12 0
10 11 12 0
-13 -14 0
-13 -15 0
-14 -15 0
13 14 15 0
-16 -17 0
-16 -18 0
-17 -18 0
16 17 18 0
-19 -20 0
-19 -21 0
-20 -21 0
19 20 21 0
-22 -23 0
-22 -24 0
-23 -24 0
22 23 24 0
-25 -26 0
-25 -27 0
-26 -27 0
25 26 27 0
-28 -29 0
-28 -30 0
-29 -30 0
28 29 30 0
-31 -32 0
-31 -33 0
-32 -33 0
31 32 33 0
-34 -35 0
-34 -36 0
-35 -36 0
34 35 36 0
-37 -38 0
-37 -39 0
-38 -39 0
37 38 39 0
-40 -41 0
-40 -42 0
-41 -42 0
40 41 42 0
-43 -44 0
-43 -45 0
-44 -45 0
43 44 45 0
-46 -47 0
-46 -48 0
-47 -48 0
46 47 48 0
-49 -50 0
-49 -51 0
-50 -51 0
49 50 51 0
-52 -53 0
-52 -54 0
-53 -54 0
52 53 54 0
-55 -56 0
-55 -57 0
-56 -57 0
55 56 57 0
-58 -59 0
-58 -60 0
-59 -60 0
58 59 60 0
-61 -62 0
-61 -63 0
-62 -63 0
61 62 63 0
-64 -65 0
-64 -66 0
-65 -66 0
64 65 66 0
-67 -68 0
-67 -69 0
-68 -69 0
67 68 69 0
-70 -71 0
-70 -72 0
-71 -72 0
70 71 72 0
-73 -74 0
-73 -75 0
-74 -75 0
73 74 75 0
-76 -77 0
-76 -78 0
-77 -78 0
76 77 78 0
-79 -80 0
-79 -81 0
-80 -81 0
79 80 81 0
-82 -83 0
-82 -84 0
-83 -84 0
82 83 84 0
-85 -86 0
-85 -87 0
-86 -87 0
85 86 87 0
-88 -89 0
-88 -90 0
-89 -90 0
88 89 90 0
-91 -92 0
-91 -93 0
-92 -93 0
91 92 93 0
-94 -95 0
-94 -96 0
-95 -96 0
94 95 96 0
-97 -98 0
-97 -99 0
-98 -99 0
97 98 99 0
-100 -101 0
-100 -102 0
-101 -102 0
100 101 102 0
-103 -104 0
-103 -105 0
-104 -105 0
103 104 105 0
-106 -107 0
-106 -108 0
-107 -108 0
106 107 108 0
-109 -110 0
-109 -111 0
-110 -111 0
109 110 111 0
-112 -113 0
-112 -114 0
-113 -114 0
112 113 114 0
-115 -116 0
-115 -117 0
-116 -117 0
115 116 117 0
-118 -119 0
-118 -120 0
-119 -120 0
118 119 120 0
-121 -122 0
-121 -123 0
-122 -123 0
121 122 123 0
-124 -125 0
-124 -126 0
-125 -126 0
124 125 126 0
-127 -128 0
-127 -129 0
-128 -129 0
127 128 129 0
-130 -131 0
-130 -132 0
-131 -132 0
130 131 132 0
-133 -134 0
-133 -135 0
-134 -135 0
133 134 135 0
-136 -137 0
-136 -138 0
-137 -138 0
136 137 138 0
-139 -140 0
-139 -141 0
-140 -141 0
139 140 141 0
-142 -143 0
-142 -144 0
-143 -144 0
142 143 144 0
-145 -146 0
-145 -147 0
-146 -147 0
145 146 147 0
-148 -149 0
-148 -150 0
-149 -150 0
148 149 150 0
-67 -1 0
-68 -2 0
-69 -3 0
-100 -1 0
-101 -2 0
-102 -3 0
-112 -1 0
-113 -2 0
-114 -3 0
-52 -4 0
-53 -5 0
-54 -6 0
-94 -4 0
-95 -5 0
-96 -6 0
-109 -4 0
-110 -5 0
-111 -6 0
-121 -4 0
-122 -5 0
-123 -6 0
-124 -4 0
-125 -5 0
-126 -6 0
-142 -4 0
-143 -5 0
-144 -6 0
-55 -7 0
-56 -8 0
-57 -9 0
-67 -7 0
-68 -8 0
-69 -9 0
-100 -7 0
-101 -8 0
-102 -9 0
-112 -7 0
-113 -8 0
-114 -9 0
-130 -7 0
-131 -8 0
-132 -9 0
-148 -7 0
-149 -8 0
-150 -9 0
-64 -10 0
-65 -11 0
-66 -12 0
-130 -10 0
-131 -11 0
-132 -12 0
-133 -10 0
-134 -11 0
-135 -12 0
-52 -13 0
-53 -14 0
-54 -15 0
-55 -13 0
-56 -14 0
-57 -15 0
-85 -13 0
-86 -14 0
-87 -15 0
-97 -13 0
-98 -14 0
-99 -15 0
-127 -13 0
-128 -14 0
-129 -15 0
-52 -16 0
-53 -17 0
-54 -18 0
-64 -16 0
-65 -17 0
-66 -18 0
-70 -16 0
-71 -17 0
-72 -18 0
-79 -16 0
-80 -17 0
-81 -18 0
-148 -16 0
-149 -17 0
-150 -18 0
-58 -19 0
-59 -20 0
-60 -21 0
-76 -19 0
-77 -20 0
-78 -21 0
-91 -19 0
-92 -20 0
-93 -21 0
-103 -19 0
-104 -20 0
-105 -21 0
-127 -19 0
-128 -20 0
-129 -21 0
-136 -19 0
-137 -20 0
-138 -21 0
-58 -22 0
-59 -23 0
-60 -24 0
-127 -22 0
-128 -23 0
-129 -24 0
-136 -22 0
-137 -23 0
-138 -24 0
-145 -22 0
-146 -23 0
-147 -24 0
-103 -25 0
-104 -26 0
-105 -27 0
-115 -25 0
-116 -26 0
-117 -27 0
-130 -25 0
-131 -26 0
-132 -27 0
-64 -28 0
-65 -29 0
-66 -30 0
-82 -28 0
-83 -29 0
-84 -30 0
-91 -28 0
-92 -29 0
-93 -30 0
-94 -28 0
-95 -29 0
-96 -30 0
-121 -28 0
-122 -29 0
-123 -30 0
-130 -28 0
-131 -29 0
-132 -30 0
-136 -28 0
-137 -29 0
-138 -30 0
-145 -28 0
-146 -29 0
-147 -30 0
-85 -31 0
-86 -32 0
-87 -33 0
-97 -31 0
-98 -32 0
-99 -33 0
-103 -31 0
-104 -32 0
-105 -33 0
-109 -31 0
-110 -32 0
-111 -33 0
-133 -31 0
-134 -32 0
-135 -33 0
-136 -31 0
-137 -32 0
-138 -33 0
-67 -34 0
-68 -35 0
-69 -36 0
-85 -34 0
-86 -35 0
-87 -36 0
-148 -34 0
-149 -35 0
-150 -36 0
-91 -37 0
-92 -38 0
-93 -39 0
-100 -37 0
-101 -38 0
-102 -39 0
-127 -37 0
-128 -38 0
-129 -39 0
-55 -40 0
-56 -41 0
-57 -42 0
-61 -40 0
-62 -41 0
-63 -42 0
-70 -40 0
-71 -41 0
-72 -42 0
-109 -40 0
-110 -41 0
-111 -42 0
-118 -40 0
-119 -41 0
-120 -42 0
-121 -40 0
-122 -41 0
-123 -42 0
-142 -43 0
-143 -44 0
-144 -45 0
-145 -43 0
-146 -44 0
-147 -45 0
-52 -46 0
-53 -47 0
-54 -48 0
-70 -46 0
-71 -47 0
-72 -48 0
-94 -46 0
-95 -47 0
-96 -48 0
-148 -46 0
-149 -47 0
-150 -48 0
-70 -49 0
-71 -50 0
-72 -51 0
-73 -49 0
-74 -50 0
-75 -51 0
-85 -49 0
-86 -50 0
-87 -51 0
-100 -49 0
-101 -50 0
-102 -51 0
-139 -52 0
-140 -53 0
-141 -54 0
-148 -52 0
-149 -53 0
-150 -54 0
-106 -55 0
-107 -56 0
-108 -57 0
-118 -55 0
-119 -56 0
-120 -57 0
-130 -55 0
-131 -56 0
-132 -57 0
-133 -55 0
-134 -56 0
-135 -57 0
-115 -58 0
-116 -59 0
-117 -60 0
-118 -58 0
-119 -59 0
-120 -60 0
-145 -58 0
-146 -59 0
-147 -60 0
-115 -61 0
-116 -62 0
-117 -63 0
-121 -61 0
-122 -62 0
-123 -63 0
-142 -61 0
-143 -62 0
-144 -63 0
-142 -64 0
-143 -65 0
-144 -66 0
-106 -67 0
-107 -68 0
-108 -69 0
-142 -67 0
-143 -68 0
-144 -69 0
-148 -67 0
-149 -68 0
-150 -69 0
-115 -70 0
-116 -71 0
-117 -72 0
-139 -70 0
-140 -71 0
-141 -72 0
-103 -73 0
-104 -74 0
-105 -75 0
-133 -73 0
-134 -74 0
-135 -75 0
-118 -76 0
-119 -77 0
-120 -78 0
-115 -79 0
-116 -80 0
-117 -81 0
-139 -79 0
-140 -80 0
-141 -81 0
-148 -79 0
-149 -80 0
-150 -81 0
-124 -82 0
-125 -83 0
-126 -84 0
-103 -85 0
-104 -86 0
-105 -87 0
-127 -85 0
-128 -86 0
-129 -87 0
-103 -88 0
-104 -89 0
-105 -90 0
-112 -88 0
-113 -89 0
-114 -90 0
-118 -88 0
-119 -89 0
-120 -90 0
-124 -88 0
-125 -89 0
-126 -90 0
-112 -91 0
-113 -92 0
-114 -93 0
-136 -91 0
-137 -92 0
-138 -93 0
-148 -91 0
-149 -92 0
-150 -93 0
-127 -94 0
-128 -95 0
-129 -96 0
-139 -94 0
-140 -95 0
-141 -96 0
-103 -97 0
-104 -98 0
-105 -99 0
-136 -100 0
-137 -101 0
-138 -102 0
